p cnf 7230 16
-4772 -4812 -4826 5228 0
4772 -5229 0
4812 -5229 0
-5228 5229 0
5226 5227 0
4770 -5227 0
-4770 -5226 0
5224 5225 0
4768 -5225 0
-4768 -5224 0
5222 5223 0
4766 -5223 0
-4766 -5222 0
4826 -5229 0
5220 5221 0
-5220 -5221 0
